
--- Job Analysis_Electricity_Power_Systems_Project.gms Start 02/08/24 15:06:38 45.7.0 64fbf3ce WEX-WEI x86 64bit/MS Windows
--- Applying:
    C:\GAMS\45\gmsprmNT.txt
--- GAMS Parameters defined
    Input C:\Users\User\Downloads\Analysis_Electricity_Power_Systems_Project.gms
    PageSize 0
    ScrDir C:\Users\User\Downloads\225a\
    SysDir C:\GAMS\45\
    LogOption 3
    ErrMsg 1
    ErrorLog 99
    IDE 1
    LstTitleLeftAligned 1
Licensee: GAMS Community License for Ioannis DeirmentzoglG240124|0002AO-GEN
          Aristotle University of Thessaloniki, Dept. of Electrical aCL4550
          C:\Users\User\Documents\GAMS\gamslice.txt
          Ioannis Deirmentzoglou, deirmentz@ece.auth.gr                    
          Community license for demonstration and instructional purposes only
Processor information: 1 socket(s), 4 core(s), and 8 thread(s) available
GAMS 45.7.0   Copyright (C) 1987-2024 GAMS Development. All rights reserved
--- Starting compilation
--- Analysis_Electricity_Power_Systems_Project.gms(228) 3 Mb
--- Starting execution: elapsed 0:00:00.012
--- Analysis_Electricity_Power_Systems_Project.gms(218) 4 Mb
--- Generating MIQCP model Optimal_Unit_Scheduling
--- Analysis_Electricity_Power_Systems_Project.gms(221) 6 Mb
---   967 rows  495 columns  2,978 non-zeroes
---   0 nl-code  0 nl-non-zeroes
---   369 discrete-columns
--- Range statistics (absolute non-zero finite values)
--- RHS       [min, max] : [ 1.000E+00, 1.700E+03] - Zero values observed as well
--- Bound     [min, max] : [ 1.000E+00, 4.000E+02] - Zero values observed as well
--- Matrix    [min, max] : [ 9.000E-01, 1.500E+04]
--- Analysis_Electricity_Power_Systems_Project.gms(221) 4 Mb
--- Executing GUROBI (Solvelink=2): elapsed 0:00:00.278

Gurobi           45.7.0 64fbf3ce Jan 18, 2024          WEI x86 64bit/MS Window

*** This solver runs with a community license. No commercial use.
Gurobi library version 10.0.3
GAMS/Gurobi demo/community requires a Gurobi license from Gurobi Optimization.
Set parameter OutputFlag to value 1
Set parameter MIPGapAbs to value 0
Set parameter Threads to value 1
Space for names approximately 0.05 Mb
Use option 'names no' to turn use of names off
Starting Gurobi...
Gurobi Optimizer version 10.0.3 build v10.0.3rc0 (win64)

CPU model: Intel(R) Core(TM) i7-10510U CPU @ 1.80GHz, instruction set [SSE2|AVX|AVX2]
Thread count: 4 physical cores, 8 logical processors, using up to 1 threads

Optimize a model with 966 rows, 494 columns and 2713 nonzeros
Model fingerprint: 0xefcb8578
Variable types: 125 continuous, 369 integer (369 binary)
Coefficient statistics:
  Matrix range     [1e+00, 4e+02]
  Objective range  [9e-01, 2e+04]
  Bounds range     [1e+00, 4e+02]
  RHS range        [1e+00, 2e+03]
Found heuristic solution: objective 189952.00000
Presolve removed 844 rows and 422 columns
Presolve time: 0.09s
Presolved: 122 rows, 72 columns, 977 nonzeros
Found heuristic solution: objective 502060.00000
Variable types: 20 continuous, 52 integer (52 binary)

Root relaxation: objective 6.116860e+05, 4 iterations, 0.00 seconds (0.00 work units)

    Nodes    |    Current Node    |     Objective Bounds      |     Work
 Expl Unexpl |  Obj  Depth IntInf | Incumbent    BestBd   Gap | It/Node Time

*    0     0               0    611686.00000 611686.000  0.00%     -    0s

Explored 1 nodes (4 simplex iterations) in 0.10 seconds (0.03 work units)
Thread count was 1 (of 8 available processors)

Solution count 3: 611686 502060 189952 

Optimal solution found (tolerance 1.00e-04)
Best objective 6.116860000000e+05, best bound 6.116860000000e+05, gap 0.0000%

User-callback calls 3262, time in user-callback 0.00 sec
MIP status(2): Model was solved to optimality (subject to tolerances).

Solving fixed MIP.
Gurobi Optimizer version 10.0.3 build v10.0.3rc0 (win64)

CPU model: Intel(R) Core(TM) i7-10510U CPU @ 1.80GHz, instruction set [SSE2|AVX|AVX2]
Thread count: 4 physical cores, 8 logical processors, using up to 1 threads

Optimize a model with 966 rows, 494 columns and 2713 nonzeros
Model fingerprint: 0xf30c2548
Coefficient statistics:
  Matrix range     [1e+00, 4e+02]
  Objective range  [9e-01, 2e+04]
  Bounds range     [1e+00, 4e+02]
  RHS range        [1e+00, 2e+03]
Presolve removed 963 rows and 434 columns
Presolve time: 0.00s
Presolved: 3 rows, 63 columns, 63 nonzeros

Iteration    Objective       Primal Inf.    Dual Inf.      Time
       0    6.3656600e+05   4.500000e+02   0.000000e+00      0s
       3    6.1168600e+05   0.000000e+00   0.000000e+00      0s

Solved in 3 iterations and 0.01 seconds (0.00 work units)
Optimal objective  6.116860000e+05

User-callback calls 3318, time in user-callback 0.00 sec
Fixed MIP status(2): Model was solved to optimality (subject to tolerances).

MIP   Solution:     611686.000000    (4 iterations, 1 nodes)
Final Solve:        611686.000000    (3 iterations)

Best possible:      611686.000000
Absolute gap:            0.000000
Relative gap:            0.000000

--- Reading solution for model Optimal_Unit_Scheduling
--- Executing after solve: elapsed 0:00:01.297
--- Analysis_Electricity_Power_Systems_Project.gms(228) 4 Mb
*** Status: Normal completion
--- Job Analysis_Electricity_Power_Systems_Project.gms Stop 02/08/24 15:06:39 elapsed 0:00:01.305
